139036
0,86,43,65,58,9,26,27,57,75,23,101,73,13,46,60,3,102,34,62,31,6,52,83,32,81,71,50,99,98,67,49,25,33,82,79,88,92,11,91,22,56,8,18,80,41,105,7,96,54,28,29,4,51,64,30,97,12,87,68,5,39,55,19,15,63,89,16,20,76,45,85,24,44,61,21,1,72,47,84,10,40,66,94,53,70,35,38,48,36,69,93,100,37,103,104,2,77,59,95,17,74,14,90,78,42,0